# Solution for model GasLib-40
# Objective value = 1.0709187705939415e+01
loadshed[innode_1] 0
loadshed[innode_2] 0
loadshed[innode_3] 0
loadshed[innode_4] 0
loadshed[innode_5] 0
loadshed[innode_6] 0
loadshed[innode_7] 0
loadshed[innode_8] 0
loadshed[source_1] -2.5185946876937537e-01
loadshed[source_2] 1.3671847206737475e-01
loadshed[source_3] 1.8288196000759827e-01
loadshed[sink_1] 0
loadshed[sink_2] 0
loadshed[sink_3] 0
loadshed[sink_4] 0
loadshed[sink_5] 0
loadshed[sink_6] 0
loadshed[sink_7] 0
loadshed[sink_8] 0
loadshed[sink_9] 0
loadshed[sink_10] 0
loadshed[sink_11] 0
loadshed[sink_12] 6.5482931195553107e-01
loadshed[sink_13] 0
loadshed[sink_14] 0
loadshed[sink_15] 0
loadshed[sink_16] 0
loadshed[sink_17] 0
loadshed[sink_18] 0
loadshed[sink_19] 0
loadshed[sink_20] 0
loadshed[sink_21] 0
loadshed[sink_22] 0
loadshed[sink_23] 0
loadshed[sink_24] 0
loadshed[sink_25] 0
loadshed[sink_26] 0
loadshed[sink_27] 0
loadshed[sink_28] 0
loadshed[sink_29] 0
flow[source_1,sink_3] 1.9790681115649187e+02
flow[innode_1,sink_16] 1.6354166666666970e+01
flow[innode_6,sink_13] -1.4699251252965288e+01
flow[sink_13,sink_14] -3.1053417919631954e+01
flow[sink_14,sink_10] -4.7407584586298626e+01
flow[sink_25,sink_26] 1.5283247896072760e+02
flow[sink_26,sink_9] 1.3647831229406060e+02
flow[sink_9,sink_18] 1.2012414562739393e+02
flow[sink_26,sink_4] 0
flow[sink_4,sink_20] -3.2122754492429408e+01
flow[sink_18,sink_6] 1.0376997896072726e+02
flow[sink_25,innode_8] -1.6519847782315551e+02
flow[sink_6,sink_7] 5.4707478960727258e+01
flow[sink_6,sink_22] 3.2708333333333641e+01
flow[sink_7,sink_24] 3.8353312294060586e+01
flow[sink_22,sink_1] 1.6354166666666970e+01
flow[sink_24,sink_21] 2.1999145627393919e+01
flow[sink_21,sink_12] 5.6449789607272516e+00
flow[sink_7,sink_5] 0
flow[sink_5,sink_17] -1.6354166666667197e+01
flow[sink_17,sink_4] -1.5768587825762740e+01
flow[sink_17,sink_8] -1.6939745507571121e+01
flow[sink_3,sink_23] 16.3541666666697
flow[sink_8,sink_20] -3.3293912174237789e+01
flow[sink_25,sink_20] 8.1770833333333883e+01
flow[sink_25,sink_15] -7.1059749884607143e+01
flow[sink_15,sink_29] -1.0376808321795806e+02
flow[sink_29,sink_28] 1.6354166666667879e+01
flow[sink_29,sink_2] 0
flow[sink_2,sink_15] -1.6354166666684250e+01
flow[sink_29,innode_7] -1.3647641655129314e+02
flow[innode_4,sink_19] 5.0489370900241092e+01
flow[sink_19,innode_3] 4.7076994078106985e+01
flow[innode_4,innode_5] 7.8689047019391040e+01
flow[sink_27,innode_5] -7.8689047019391040e+01
flow[sink_27,sink_19] 6.2334880352724369e+01
flow[sink_10,sink_11] 3.2708333333333641e+01
flow[sink_10,innode_2] -4.9393090508191996e+01
flow[sink_10,innode_3] -4.7076994078106985e+01
flow[innode_6,sink_25] 1.4699251252965288e+01
flow[sink_11,innode_1] 1.6354166666666970e+01
flow[sink_19,innode_2] 4.9393090508191996e+01
flow[source_3,innode_4] 1.2917841791963212e+02
flow[source_2,innode_7] 1.3647641655129314e+02
flow[sink_3,innode_8] 1.6519847782315551e+02
pressure[innode_1] 7.6205466796074575e+01
pressure[innode_2] 7.8967796937180950e+01
pressure[innode_3] 7.8863550264686282e+01
pressure[innode_4] 81.01325
pressure[innode_5] 8.0959123524173762e+01
pressure[innode_6] 7.3978248667698409e+01
pressure[innode_7] 81.01325
pressure[innode_8] 8.0351723133446015e+01
pressure[source_1] 81.01325
pressure[source_2] 81.01325
pressure[source_3] 81.01325
pressure[sink_1] 4.5827273063607791e+01
pressure[sink_2] 7.4269564947044159e+01
pressure[sink_3] 8.0351723133446015e+01
pressure[sink_4] 5.2127657394648281e+01
pressure[sink_5] 5.0306766757903986e+01
pressure[sink_6] 4.7928350673995162e+01
pressure[sink_7] 4.7177347390757568e+01
pressure[sink_8] 5.2164214569636044e+01
pressure[sink_9] 5.5045767696404596e+01
pressure[sink_10] 7.6357168103678120e+01
pressure[sink_11] 7.6205466796074575e+01
pressure[sink_12] 1.0132499999999984e+00
pressure[sink_13] 7.4059283183382931e+01
pressure[sink_14] 7.4114855919916437e+01
pressure[sink_15] 74.3229576968106
pressure[sink_16] 75.1838169612569
pressure[sink_17] 5.1525033963258736e+01
pressure[sink_18] 5.0699318076076949e+01
pressure[sink_19] 7.8967796937180950e+01
pressure[sink_20] 5.4484332026869474e+01
pressure[sink_21] 3.0220424651287061e+00
pressure[sink_22] 46.8910422059628
pressure[sink_23] 8.0187005121786228e+01
pressure[sink_24] 3.2656625633081262e+00
pressure[sink_25] 7.3978248667698409e+01
pressure[sink_26] 63.2143469280319
pressure[sink_27] 8.0306149835637527e+01
pressure[sink_28] 7.7067758229383315e+01
pressure[sink_29] 7.7363040503000491e+01
interdiction[source_1,sink_3] 0
interdiction[innode_1,sink_16] 0
interdiction[innode_6,sink_13] 0
interdiction[sink_13,sink_14] 0
interdiction[sink_14,sink_10] 0
interdiction[sink_25,sink_26] 0
interdiction[sink_26,sink_9] 0
interdiction[sink_9,sink_18] 0
interdiction[sink_26,sink_4] 1
interdiction[sink_4,sink_20] 0
interdiction[sink_18,sink_6] 0
interdiction[sink_25,innode_8] 0
interdiction[sink_6,sink_7] 0
interdiction[sink_6,sink_22] 0
interdiction[sink_7,sink_24] 0
interdiction[sink_22,sink_1] 0
interdiction[sink_24,sink_21] 0
interdiction[sink_21,sink_12] 0
interdiction[sink_7,sink_5] 1
interdiction[sink_5,sink_17] 0
interdiction[sink_17,sink_4] 0
interdiction[sink_17,sink_8] 0
interdiction[sink_3,sink_23] 0
interdiction[sink_8,sink_20] 0
interdiction[sink_25,sink_20] 0
interdiction[sink_25,sink_15] 0
interdiction[sink_15,sink_29] 0
interdiction[sink_29,sink_28] 0
interdiction[sink_29,sink_2] 1
interdiction[sink_2,sink_15] 0
interdiction[sink_29,innode_7] 0
interdiction[innode_4,sink_19] 0
interdiction[sink_19,innode_3] 0
interdiction[innode_4,innode_5] 0
interdiction[sink_27,innode_5] 0
interdiction[sink_27,sink_19] 0
interdiction[sink_10,sink_11] 0
interdiction[sink_10,innode_2] 0
interdiction[sink_10,innode_3] 0
interdiction[innode_6,sink_25] 0
interdiction[sink_11,innode_1] 0
interdiction[sink_19,innode_2] 0
interdiction[source_3,innode_4] 0
interdiction[source_2,innode_7] 0
interdiction[sink_3,innode_8] 0
WCcheckFlow[source_1,sink_3] 39
WCcheckFlow[innode_1,sink_16] 1
WCcheckFlow[innode_6,sink_13] 13
WCcheckFlow[sink_13,sink_14] 12
WCcheckFlow[sink_14,sink_10] 11
WCcheckFlow[sink_25,sink_26] 10
WCcheckFlow[sink_26,sink_9] 9
WCcheckFlow[sink_9,sink_18] 8
WCcheckFlow[sink_26,sink_4] 0
WCcheckFlow[sink_4,sink_20] -4
WCcheckFlow[sink_18,sink_6] 7
WCcheckFlow[sink_25,innode_8] -36
WCcheckFlow[sink_6,sink_7] 4
WCcheckFlow[sink_6,sink_22] 2
WCcheckFlow[sink_7,sink_24] 3
WCcheckFlow[sink_22,sink_1] 1
WCcheckFlow[sink_24,sink_21] 2
WCcheckFlow[sink_21,sink_12] 1
WCcheckFlow[sink_7,sink_5] 0
WCcheckFlow[sink_5,sink_17] -1
WCcheckFlow[sink_17,sink_4] -3
WCcheckFlow[sink_17,sink_8] 1
WCcheckFlow[sink_3,sink_23] 1
WCcheckFlow[sink_8,sink_20] 0
WCcheckFlow[sink_25,sink_20] 5
WCcheckFlow[sink_25,sink_15] 6
WCcheckFlow[sink_15,sink_29] 4
WCcheckFlow[sink_29,sink_28] 1
WCcheckFlow[sink_29,sink_2] 0
WCcheckFlow[sink_2,sink_15] -1
WCcheckFlow[sink_29,innode_7] 2
WCcheckFlow[innode_4,sink_19] -4
WCcheckFlow[sink_19,innode_3] -5
WCcheckFlow[innode_4,innode_5] 2
WCcheckFlow[sink_27,innode_5] -1
WCcheckFlow[sink_27,sink_19] 0
WCcheckFlow[sink_10,sink_11] 3
WCcheckFlow[sink_10,innode_2] 1
WCcheckFlow[sink_10,innode_3] 6
WCcheckFlow[innode_6,sink_25] -14
WCcheckFlow[sink_11,innode_1] 2
WCcheckFlow[sink_19,innode_2] 0
WCcheckFlow[source_3,innode_4] -1
WCcheckFlow[source_2,innode_7] -1
WCcheckFlow[sink_3,innode_8] 37
